
Gurobi 9.5.2 (win64) logging started Mon Mar 27 20:27:56 2023

Set parameter LogFile to value "2023-03-27_20hr-25min-09sec/Nodes40_Arcs45_LocNodes30/Formulation-2Instance-3.log"
Set parameter TimeLimit to value 600
Set parameter IntFeasTol to value 1e-09
Set parameter DualReductions to value 0
Set parameter NonConvex to value 2
Gurobi Optimizer version 9.5.2 build v9.5.2rc0 (win64)
Thread count: 4 physical cores, 8 logical processors, using up to 8 threads
Optimize a model with 156 rows, 270 columns and 550 nonzeros
Model fingerprint: 0x614a8717
Model has 85 quadratic objective terms
Model has 85 SOS constraints
Variable types: 240 continuous, 30 integer (30 binary)
Coefficient statistics:
  Matrix range     [3e-02, 2e+02]
  Objective range  [3e-01, 1e+03]
  QObjective range [6e-02, 8e+00]
  Bounds range     [1e+00, 1e+00]
  RHS range        [3e-01, 3e+03]
Presolve removed 32 rows and 44 columns
Presolve time: 0.00s
Presolved: 124 rows, 226 columns, 439 nonzeros
Presolved model has 65 SOS constraint(s)
Presolved model has 65 quadratic objective terms
Variable types: 196 continuous, 30 integer (30 binary)

Root relaxation: objective 1.151642e+06, 283 iterations, 0.00 seconds (0.00 work units)

    Nodes    |    Current Node    |     Objective Bounds      |     Work
 Expl Unexpl |  Obj  Depth IntInf | Incumbent    BestBd   Gap | It/Node Time

     0     0 1151641.78    0   12          - 1151641.78      -     -    0s
H    0     0                    1136239.5790 1151641.78  1.36%     -    0s
H    0     0                    1138184.4142 1151641.78  1.18%     -    0s
     0     0 1151583.23    0   15 1138184.41 1151583.23  1.18%     -    0s
H    0     0                    1141540.9705 1151583.23  0.88%     -    0s
H    0     0                    1143330.4181 1151583.23  0.72%     -    0s
H    0     0                    1143422.2323 1151582.50  0.71%     -    0s
H    0     0                    1144807.5911 1151582.50  0.59%     -    0s
     0     0 1151159.37    0   16 1144807.59 1151159.37  0.55%     -    0s
     0     0 1151159.37    0   16 1144807.59 1151159.37  0.55%     -    0s
H    0     0                    1146127.1470 1151159.37  0.44%     -    0s
H    0     0                    1150446.3938 1151159.37  0.06%     -    0s
     0     0 1150927.52    0    5 1150446.39 1150927.52  0.04%     -    0s
H    0     0                    1150727.7015 1150927.52  0.02%     -    0s
H    0     0                    1150729.8903 1150927.52  0.02%     -    0s
     0     0 1150927.52    0    8 1150729.89 1150927.52  0.02%     -    0s
     0     0 1150860.35    0    8 1150729.89 1150860.35  0.01%     -    0s

Cutting planes:
  Implied bound: 1
  MIR: 2
  Flow cover: 6
  Relax-and-lift: 1

Explored 1 nodes (512 simplex iterations) in 0.11 seconds (0.02 work units)
Thread count was 8 (of 8 available processors)

Solution count 10: 1.15073e+06 1.15045e+06 1.14613e+06 ... 1.13624e+06

Optimal solution found (tolerance 1.00e-04)
Best objective 1.150729890307e+06, best bound 1.150731248090e+06, gap 0.0001%

User-callback calls 338, time in user-callback 0.00 sec
